(set-logic HORN)
(declare-datatypes ((Nat_0 0)) (((Z_2 ) (Z_3 (unS_0 Nat_0)))))
(declare-fun diseqNat_0 (Nat_0 Nat_0) Bool)
(declare-fun minus_0 (Nat_0 Nat_0 Nat_0) Bool)
(declare-fun le_0 (Nat_0 Nat_0) Bool)
(declare-fun gt_0 (Nat_0 Nat_0) Bool)
(declare-datatypes ((Bool_0 0)) (((false_0 ) (true_0 ))))
(declare-fun diseqBool_0 (Bool_0 Bool_0) Bool)
(declare-fun and_0 (Bool_0 Bool_0 Bool_0) Bool)
(declare-fun or_0 (Bool_0 Bool_0 Bool_0) Bool)
(declare-datatypes ((T_0 0)) (((A_0 ) (B_0 ) (C_0 ))))
(declare-fun diseqT_0 (T_0 T_0) Bool)
(declare-datatypes ((list_0 0)) (((nil_0 ) (cons_0 (head_0 T_0) (tail_0 list_0)))))
(declare-datatypes ((R_0 0)) (((Nil_1 ) (Eps_0 ) (Atom_0 (projAtom_0 T_0)) (x_0 (proj_0 R_0) (proj_1 R_0)) (x_1 (proj_2 R_0) (proj_3 R_0)) (x_2 (proj_4 R_0) (proj_5 R_0)) (Star_0 (projStar_0 R_0)))))
(declare-fun x_3 (R_0 R_0 R_0) Bool)
(declare-fun x_9 (R_0 R_0 R_0) Bool)
(declare-fun rep_0 (R_0 R_0 Nat_0 Nat_0) Bool)
(declare-fun eps_1 (Bool_0 R_0) Bool)
(declare-fun step_0 (R_0 R_0 T_0) Bool)
(declare-fun rec_0 (Bool_0 R_0 list_0) Bool)
(assert (forall ((x_4472 Nat_0))
	(diseqNat_0 Z_2 (Z_3 x_4472))))
(assert (forall ((x_4473 Nat_0))
	(diseqNat_0 (Z_3 x_4473) Z_2)))
(assert (forall ((x_4474 Nat_0) (x_4475 Nat_0))
	(=> (diseqNat_0 x_4474 x_4475) (diseqNat_0 (Z_3 x_4474) (Z_3 x_4475)))))
(assert (forall ((y_6 Nat_0))
	(minus_0 Z_2 Z_2 y_6)))
(assert (forall ((r_3 Nat_0) (x_4459 Nat_0) (y_6 Nat_0))
	(=> (minus_0 r_3 x_4459 y_6) (minus_0 (Z_3 r_3) (Z_3 x_4459) y_6))))
(assert (forall ((y_6 Nat_0))
	(le_0 Z_2 y_6)))
(assert (forall ((x_4459 Nat_0) (y_6 Nat_0))
	(=> (le_0 x_4459 y_6) (le_0 (Z_3 x_4459) (Z_3 y_6)))))
(assert (forall ((y_6 Nat_0))
	(gt_0 (Z_3 y_6) Z_2)))
(assert (forall ((x_4459 Nat_0) (y_6 Nat_0))
	(=> (gt_0 x_4459 y_6) (gt_0 (Z_3 x_4459) (Z_3 y_6)))))
(assert (diseqBool_0 false_0 true_0))
(assert (diseqBool_0 true_0 false_0))
(assert (and_0 false_0 false_0 false_0))
(assert (and_0 false_0 true_0 false_0))
(assert (and_0 false_0 false_0 true_0))
(assert (and_0 true_0 true_0 true_0))
(assert (or_0 false_0 false_0 false_0))
(assert (or_0 true_0 true_0 false_0))
(assert (or_0 true_0 false_0 true_0))
(assert (or_0 true_0 true_0 true_0))
(assert (diseqT_0 A_0 B_0))
(assert (diseqT_0 A_0 C_0))
(assert (diseqT_0 B_0 A_0))
(assert (diseqT_0 C_0 A_0))
(assert (diseqT_0 B_0 C_0))
(assert (diseqT_0 C_0 B_0))
(assert (forall ((y_0 R_0))
	(x_3 Nil_1 Nil_1 y_0)))
(assert (forall ((x_5 R_0) (x_429 T_0))
	(x_3 Nil_1 (Atom_0 x_429) Nil_1)))
(assert (forall ((x_5 R_0))
	(x_3 Nil_1 Eps_0 Nil_1)))
(assert (forall ((x_5 R_0) (x_430 R_0))
	(x_3 Nil_1 (Star_0 x_430) Nil_1)))
(assert (forall ((x_5 R_0) (x_431 R_0) (x_432 R_0))
	(x_3 Nil_1 (x_0 x_431 x_432) Nil_1)))
(assert (forall ((x_5 R_0) (x_433 R_0) (x_434 R_0))
	(x_3 Nil_1 (x_1 x_433 x_434) Nil_1)))
(assert (forall ((x_5 R_0) (x_435 R_0) (x_436 R_0))
	(x_3 Nil_1 (x_2 x_435 x_436) Nil_1)))
(assert (forall ((x_6 R_0) (x_85 T_0) (x_5 R_0))
	(x_3 (Atom_0 x_85) Eps_0 (Atom_0 x_85))))
(assert (forall ((x_6 R_0) (x_5 R_0))
	(x_3 Eps_0 Eps_0 Eps_0)))
(assert (forall ((x_6 R_0) (x_86 R_0) (x_5 R_0))
	(x_3 (Star_0 x_86) Eps_0 (Star_0 x_86))))
(assert (forall ((x_6 R_0) (x_87 R_0) (x_88 R_0) (x_5 R_0))
	(x_3 (x_0 x_87 x_88) Eps_0 (x_0 x_87 x_88))))
(assert (forall ((x_6 R_0) (x_89 R_0) (x_90 R_0) (x_5 R_0))
	(x_3 (x_1 x_89 x_90) Eps_0 (x_1 x_89 x_90))))
(assert (forall ((x_6 R_0) (x_91 R_0) (x_92 R_0) (x_5 R_0))
	(x_3 (x_2 x_91 x_92) Eps_0 (x_2 x_91 x_92))))
(assert (forall ((x_7 R_0) (x_29 T_0) (x_6 R_0) (x_5 R_0))
	(x_3 (Atom_0 x_29) (Atom_0 x_29) Eps_0)))
(assert (forall ((x_7 R_0) (x_30 R_0) (x_6 R_0) (x_5 R_0))
	(x_3 (Star_0 x_30) (Star_0 x_30) Eps_0)))
(assert (forall ((x_7 R_0) (x_31 R_0) (x_32 R_0) (x_6 R_0) (x_5 R_0))
	(x_3 (x_0 x_31 x_32) (x_0 x_31 x_32) Eps_0)))
(assert (forall ((x_7 R_0) (x_33 R_0) (x_34 R_0) (x_6 R_0) (x_5 R_0))
	(x_3 (x_1 x_33 x_34) (x_1 x_33 x_34) Eps_0)))
(assert (forall ((x_7 R_0) (x_35 R_0) (x_36 R_0) (x_6 R_0) (x_5 R_0))
	(x_3 (x_2 x_35 x_36) (x_2 x_35 x_36) Eps_0)))
(assert (forall ((x_8 R_0) (x_7 R_0) (x_37 T_0) (x_6 R_0) (x_141 T_0) (x_5 R_0))
	(x_3 (x_2 (Atom_0 x_37) (Atom_0 x_141)) (Atom_0 x_37) (Atom_0 x_141))))
(assert (forall ((x_8 R_0) (x_7 R_0) (x_38 R_0) (x_6 R_0) (x_157 T_0) (x_5 R_0))
	(x_3 (x_2 (Star_0 x_38) (Atom_0 x_157)) (Star_0 x_38) (Atom_0 x_157))))
(assert (forall ((x_8 R_0) (x_7 R_0) (x_39 R_0) (x_40 R_0) (x_6 R_0) (x_165 T_0) (x_5 R_0))
	(x_3 (x_2 (x_0 x_39 x_40) (Atom_0 x_165)) (x_0 x_39 x_40) (Atom_0 x_165))))
(assert (forall ((x_8 R_0) (x_7 R_0) (x_41 R_0) (x_42 R_0) (x_6 R_0) (x_173 T_0) (x_5 R_0))
	(x_3 (x_2 (x_1 x_41 x_42) (Atom_0 x_173)) (x_1 x_41 x_42) (Atom_0 x_173))))
(assert (forall ((x_8 R_0) (x_7 R_0) (x_6 R_0) (x_181 T_0) (x_5 R_0) (x_1019 R_0) (x_1020 R_0))
	(x_3 (x_2 (x_2 x_1019 x_1020) (Atom_0 x_181)) (x_2 x_1019 x_1020) (Atom_0 x_181))))
(assert (forall ((x_8 R_0) (x_22 R_0) (x_7 R_0) (x_6 R_0) (x_5 R_0) (x_1365 T_0))
	(x_3 (x_2 (Atom_0 x_1365) (Star_0 x_22)) (Atom_0 x_1365) (Star_0 x_22))))
(assert (forall ((x_8 R_0) (x_22 R_0) (x_7 R_0) (x_6 R_0) (x_5 R_0) (x_1462 R_0))
	(x_3 (x_2 (Star_0 x_1462) (Star_0 x_22)) (Star_0 x_1462) (Star_0 x_22))))
(assert (forall ((x_8 R_0) (x_22 R_0) (x_7 R_0) (x_6 R_0) (x_5 R_0) (x_1511 R_0) (x_1512 R_0))
	(x_3 (x_2 (x_0 x_1511 x_1512) (Star_0 x_22)) (x_0 x_1511 x_1512) (Star_0 x_22))))
(assert (forall ((x_8 R_0) (x_22 R_0) (x_7 R_0) (x_6 R_0) (x_5 R_0) (x_1561 R_0) (x_1562 R_0))
	(x_3 (x_2 (x_1 x_1561 x_1562) (Star_0 x_22)) (x_1 x_1561 x_1562) (Star_0 x_22))))
(assert (forall ((x_8 R_0) (x_22 R_0) (x_7 R_0) (x_6 R_0) (x_5 R_0) (x_1611 R_0) (x_1612 R_0))
	(x_3 (x_2 (x_2 x_1611 x_1612) (Star_0 x_22)) (x_2 x_1611 x_1612) (Star_0 x_22))))
(assert (forall ((x_8 R_0) (x_23 R_0) (x_24 R_0) (x_7 R_0) (x_6 R_0) (x_5 R_0) (x_1661 T_0))
	(x_3 (x_2 (Atom_0 x_1661) (x_0 x_23 x_24)) (Atom_0 x_1661) (x_0 x_23 x_24))))
(assert (forall ((x_8 R_0) (x_23 R_0) (x_24 R_0) (x_7 R_0) (x_6 R_0) (x_5 R_0) (x_1758 R_0))
	(x_3 (x_2 (Star_0 x_1758) (x_0 x_23 x_24)) (Star_0 x_1758) (x_0 x_23 x_24))))
(assert (forall ((x_8 R_0) (x_23 R_0) (x_24 R_0) (x_7 R_0) (x_6 R_0) (x_5 R_0) (x_1807 R_0) (x_1808 R_0))
	(x_3 (x_2 (x_0 x_1807 x_1808) (x_0 x_23 x_24)) (x_0 x_1807 x_1808) (x_0 x_23 x_24))))
(assert (forall ((x_8 R_0) (x_23 R_0) (x_24 R_0) (x_7 R_0) (x_6 R_0) (x_5 R_0) (x_1857 R_0) (x_1858 R_0))
	(x_3 (x_2 (x_1 x_1857 x_1858) (x_0 x_23 x_24)) (x_1 x_1857 x_1858) (x_0 x_23 x_24))))
(assert (forall ((x_8 R_0) (x_23 R_0) (x_24 R_0) (x_7 R_0) (x_6 R_0) (x_5 R_0) (x_1907 R_0) (x_1908 R_0))
	(x_3 (x_2 (x_2 x_1907 x_1908) (x_0 x_23 x_24)) (x_2 x_1907 x_1908) (x_0 x_23 x_24))))
(assert (forall ((x_8 R_0) (x_25 R_0) (x_26 R_0) (x_7 R_0) (x_6 R_0) (x_5 R_0) (x_1957 T_0))
	(x_3 (x_2 (Atom_0 x_1957) (x_1 x_25 x_26)) (Atom_0 x_1957) (x_1 x_25 x_26))))
(assert (forall ((x_8 R_0) (x_25 R_0) (x_26 R_0) (x_7 R_0) (x_6 R_0) (x_5 R_0) (x_2054 R_0))
	(x_3 (x_2 (Star_0 x_2054) (x_1 x_25 x_26)) (Star_0 x_2054) (x_1 x_25 x_26))))
(assert (forall ((x_8 R_0) (x_25 R_0) (x_26 R_0) (x_7 R_0) (x_6 R_0) (x_5 R_0) (x_2103 R_0) (x_2104 R_0))
	(x_3 (x_2 (x_0 x_2103 x_2104) (x_1 x_25 x_26)) (x_0 x_2103 x_2104) (x_1 x_25 x_26))))
(assert (forall ((x_8 R_0) (x_25 R_0) (x_26 R_0) (x_7 R_0) (x_6 R_0) (x_5 R_0) (x_2153 R_0) (x_2154 R_0))
	(x_3 (x_2 (x_1 x_2153 x_2154) (x_1 x_25 x_26)) (x_1 x_2153 x_2154) (x_1 x_25 x_26))))
(assert (forall ((x_8 R_0) (x_25 R_0) (x_26 R_0) (x_7 R_0) (x_6 R_0) (x_5 R_0) (x_2203 R_0) (x_2204 R_0))
	(x_3 (x_2 (x_2 x_2203 x_2204) (x_1 x_25 x_26)) (x_2 x_2203 x_2204) (x_1 x_25 x_26))))
(assert (forall ((x_8 R_0) (x_27 R_0) (x_28 R_0) (x_7 R_0) (x_6 R_0) (x_5 R_0) (x_2253 T_0))
	(x_3 (x_2 (Atom_0 x_2253) (x_2 x_27 x_28)) (Atom_0 x_2253) (x_2 x_27 x_28))))
(assert (forall ((x_8 R_0) (x_27 R_0) (x_28 R_0) (x_7 R_0) (x_6 R_0) (x_5 R_0) (x_2350 R_0))
	(x_3 (x_2 (Star_0 x_2350) (x_2 x_27 x_28)) (Star_0 x_2350) (x_2 x_27 x_28))))
(assert (forall ((x_8 R_0) (x_27 R_0) (x_28 R_0) (x_7 R_0) (x_6 R_0) (x_5 R_0) (x_2399 R_0) (x_2400 R_0))
	(x_3 (x_2 (x_0 x_2399 x_2400) (x_2 x_27 x_28)) (x_0 x_2399 x_2400) (x_2 x_27 x_28))))
(assert (forall ((x_8 R_0) (x_27 R_0) (x_28 R_0) (x_7 R_0) (x_6 R_0) (x_5 R_0) (x_2449 R_0) (x_2450 R_0))
	(x_3 (x_2 (x_1 x_2449 x_2450) (x_2 x_27 x_28)) (x_1 x_2449 x_2450) (x_2 x_27 x_28))))
(assert (forall ((x_8 R_0) (x_27 R_0) (x_28 R_0) (x_7 R_0) (x_6 R_0) (x_5 R_0) (x_2499 R_0) (x_2500 R_0))
	(x_3 (x_2 (x_2 x_2499 x_2500) (x_2 x_27 x_28)) (x_2 x_2499 x_2500) (x_2 x_27 x_28))))
(assert (forall ((x_4185 R_0))
	(x_9 x_4185 Nil_1 x_4185)))
(assert (forall ((x_11 R_0) (x_2509 T_0))
	(x_9 (Atom_0 x_2509) (Atom_0 x_2509) Nil_1)))
(assert (forall ((x_11 R_0))
	(x_9 Eps_0 Eps_0 Nil_1)))
(assert (forall ((x_11 R_0) (x_2510 R_0))
	(x_9 (Star_0 x_2510) (Star_0 x_2510) Nil_1)))
(assert (forall ((x_11 R_0) (x_2511 R_0) (x_2512 R_0))
	(x_9 (x_0 x_2511 x_2512) (x_0 x_2511 x_2512) Nil_1)))
(assert (forall ((x_11 R_0) (x_2513 R_0) (x_2514 R_0))
	(x_9 (x_1 x_2513 x_2514) (x_1 x_2513 x_2514) Nil_1)))
(assert (forall ((x_11 R_0) (x_2515 R_0) (x_2516 R_0))
	(x_9 (x_2 x_2515 x_2516) (x_2 x_2515 x_2516) Nil_1)))
(assert (forall ((x_12 R_0) (x_2501 T_0) (x_11 R_0) (x_2517 T_0))
	(x_9 (x_0 (Atom_0 x_2517) (Atom_0 x_2501)) (Atom_0 x_2517) (Atom_0 x_2501))))
(assert (forall ((x_12 R_0) (x_2501 T_0) (x_11 R_0))
	(x_9 (x_0 Eps_0 (Atom_0 x_2501)) Eps_0 (Atom_0 x_2501))))
(assert (forall ((x_12 R_0) (x_2501 T_0) (x_11 R_0) (x_2518 R_0))
	(x_9 (x_0 (Star_0 x_2518) (Atom_0 x_2501)) (Star_0 x_2518) (Atom_0 x_2501))))
(assert (forall ((x_12 R_0) (x_2501 T_0) (x_11 R_0) (x_2519 R_0) (x_2520 R_0))
	(x_9 (x_0 (x_0 x_2519 x_2520) (Atom_0 x_2501)) (x_0 x_2519 x_2520) (Atom_0 x_2501))))
(assert (forall ((x_12 R_0) (x_2501 T_0) (x_11 R_0) (x_2521 R_0) (x_2522 R_0))
	(x_9 (x_0 (x_1 x_2521 x_2522) (Atom_0 x_2501)) (x_1 x_2521 x_2522) (Atom_0 x_2501))))
(assert (forall ((x_12 R_0) (x_2501 T_0) (x_11 R_0) (x_2523 R_0) (x_2524 R_0))
	(x_9 (x_0 (x_2 x_2523 x_2524) (Atom_0 x_2501)) (x_2 x_2523 x_2524) (Atom_0 x_2501))))
(assert (forall ((x_12 R_0) (x_11 R_0) (x_2525 T_0))
	(x_9 (x_0 (Atom_0 x_2525) Eps_0) (Atom_0 x_2525) Eps_0)))
(assert (forall ((x_12 R_0) (x_11 R_0))
	(x_9 (x_0 Eps_0 Eps_0) Eps_0 Eps_0)))
(assert (forall ((x_12 R_0) (x_11 R_0) (x_2526 R_0))
	(x_9 (x_0 (Star_0 x_2526) Eps_0) (Star_0 x_2526) Eps_0)))
(assert (forall ((x_12 R_0) (x_11 R_0) (x_2527 R_0) (x_2528 R_0))
	(x_9 (x_0 (x_0 x_2527 x_2528) Eps_0) (x_0 x_2527 x_2528) Eps_0)))
(assert (forall ((x_12 R_0) (x_11 R_0) (x_2529 R_0) (x_2530 R_0))
	(x_9 (x_0 (x_1 x_2529 x_2530) Eps_0) (x_1 x_2529 x_2530) Eps_0)))
(assert (forall ((x_12 R_0) (x_11 R_0) (x_2531 R_0) (x_2532 R_0))
	(x_9 (x_0 (x_2 x_2531 x_2532) Eps_0) (x_2 x_2531 x_2532) Eps_0)))
(assert (forall ((x_12 R_0) (x_2502 R_0) (x_11 R_0) (x_2533 T_0))
	(x_9 (x_0 (Atom_0 x_2533) (Star_0 x_2502)) (Atom_0 x_2533) (Star_0 x_2502))))
(assert (forall ((x_12 R_0) (x_2502 R_0) (x_11 R_0))
	(x_9 (x_0 Eps_0 (Star_0 x_2502)) Eps_0 (Star_0 x_2502))))
(assert (forall ((x_12 R_0) (x_2502 R_0) (x_11 R_0) (x_2534 R_0))
	(x_9 (x_0 (Star_0 x_2534) (Star_0 x_2502)) (Star_0 x_2534) (Star_0 x_2502))))
(assert (forall ((x_12 R_0) (x_2502 R_0) (x_11 R_0) (x_2535 R_0) (x_2536 R_0))
	(x_9 (x_0 (x_0 x_2535 x_2536) (Star_0 x_2502)) (x_0 x_2535 x_2536) (Star_0 x_2502))))
(assert (forall ((x_12 R_0) (x_2502 R_0) (x_11 R_0) (x_2537 R_0) (x_2538 R_0))
	(x_9 (x_0 (x_1 x_2537 x_2538) (Star_0 x_2502)) (x_1 x_2537 x_2538) (Star_0 x_2502))))
(assert (forall ((x_12 R_0) (x_2502 R_0) (x_11 R_0) (x_2539 R_0) (x_2540 R_0))
	(x_9 (x_0 (x_2 x_2539 x_2540) (Star_0 x_2502)) (x_2 x_2539 x_2540) (Star_0 x_2502))))
(assert (forall ((x_12 R_0) (x_2503 R_0) (x_2504 R_0) (x_11 R_0) (x_2541 T_0))
	(x_9 (x_0 (Atom_0 x_2541) (x_0 x_2503 x_2504)) (Atom_0 x_2541) (x_0 x_2503 x_2504))))
(assert (forall ((x_12 R_0) (x_2503 R_0) (x_2504 R_0) (x_11 R_0))
	(x_9 (x_0 Eps_0 (x_0 x_2503 x_2504)) Eps_0 (x_0 x_2503 x_2504))))
(assert (forall ((x_12 R_0) (x_2503 R_0) (x_2504 R_0) (x_11 R_0) (x_2542 R_0))
	(x_9 (x_0 (Star_0 x_2542) (x_0 x_2503 x_2504)) (Star_0 x_2542) (x_0 x_2503 x_2504))))
(assert (forall ((x_12 R_0) (x_2503 R_0) (x_2504 R_0) (x_11 R_0) (x_2543 R_0) (x_2544 R_0))
	(x_9 (x_0 (x_0 x_2543 x_2544) (x_0 x_2503 x_2504)) (x_0 x_2543 x_2544) (x_0 x_2503 x_2504))))
(assert (forall ((x_12 R_0) (x_2503 R_0) (x_2504 R_0) (x_11 R_0) (x_2545 R_0) (x_2546 R_0))
	(x_9 (x_0 (x_1 x_2545 x_2546) (x_0 x_2503 x_2504)) (x_1 x_2545 x_2546) (x_0 x_2503 x_2504))))
(assert (forall ((x_12 R_0) (x_2503 R_0) (x_2504 R_0) (x_11 R_0) (x_2547 R_0) (x_2548 R_0))
	(x_9 (x_0 (x_2 x_2547 x_2548) (x_0 x_2503 x_2504)) (x_2 x_2547 x_2548) (x_0 x_2503 x_2504))))
(assert (forall ((x_12 R_0) (x_2505 R_0) (x_2506 R_0) (x_11 R_0) (x_2549 T_0))
	(x_9 (x_0 (Atom_0 x_2549) (x_1 x_2505 x_2506)) (Atom_0 x_2549) (x_1 x_2505 x_2506))))
(assert (forall ((x_12 R_0) (x_2505 R_0) (x_2506 R_0) (x_11 R_0))
	(x_9 (x_0 Eps_0 (x_1 x_2505 x_2506)) Eps_0 (x_1 x_2505 x_2506))))
(assert (forall ((x_12 R_0) (x_2505 R_0) (x_2506 R_0) (x_11 R_0) (x_2550 R_0))
	(x_9 (x_0 (Star_0 x_2550) (x_1 x_2505 x_2506)) (Star_0 x_2550) (x_1 x_2505 x_2506))))
(assert (forall ((x_12 R_0) (x_2505 R_0) (x_2506 R_0) (x_11 R_0) (x_2551 R_0) (x_2552 R_0))
	(x_9 (x_0 (x_0 x_2551 x_2552) (x_1 x_2505 x_2506)) (x_0 x_2551 x_2552) (x_1 x_2505 x_2506))))
(assert (forall ((x_12 R_0) (x_2505 R_0) (x_2506 R_0) (x_11 R_0) (x_2553 R_0) (x_2554 R_0))
	(x_9 (x_0 (x_1 x_2553 x_2554) (x_1 x_2505 x_2506)) (x_1 x_2553 x_2554) (x_1 x_2505 x_2506))))
(assert (forall ((x_12 R_0) (x_2505 R_0) (x_2506 R_0) (x_11 R_0) (x_2555 R_0) (x_2556 R_0))
	(x_9 (x_0 (x_2 x_2555 x_2556) (x_1 x_2505 x_2506)) (x_2 x_2555 x_2556) (x_1 x_2505 x_2506))))
(assert (forall ((x_12 R_0) (x_2507 R_0) (x_2508 R_0) (x_11 R_0) (x_2557 T_0))
	(x_9 (x_0 (Atom_0 x_2557) (x_2 x_2507 x_2508)) (Atom_0 x_2557) (x_2 x_2507 x_2508))))
(assert (forall ((x_12 R_0) (x_2507 R_0) (x_2508 R_0) (x_11 R_0))
	(x_9 (x_0 Eps_0 (x_2 x_2507 x_2508)) Eps_0 (x_2 x_2507 x_2508))))
(assert (forall ((x_12 R_0) (x_2507 R_0) (x_2508 R_0) (x_11 R_0) (x_2558 R_0))
	(x_9 (x_0 (Star_0 x_2558) (x_2 x_2507 x_2508)) (Star_0 x_2558) (x_2 x_2507 x_2508))))
(assert (forall ((x_12 R_0) (x_2507 R_0) (x_2508 R_0) (x_11 R_0) (x_2559 R_0) (x_2560 R_0))
	(x_9 (x_0 (x_0 x_2559 x_2560) (x_2 x_2507 x_2508)) (x_0 x_2559 x_2560) (x_2 x_2507 x_2508))))
(assert (forall ((x_12 R_0) (x_2507 R_0) (x_2508 R_0) (x_11 R_0) (x_2561 R_0) (x_2562 R_0))
	(x_9 (x_0 (x_1 x_2561 x_2562) (x_2 x_2507 x_2508)) (x_1 x_2561 x_2562) (x_2 x_2507 x_2508))))
(assert (forall ((x_12 R_0) (x_2507 R_0) (x_2508 R_0) (x_11 R_0) (x_2563 R_0) (x_2564 R_0))
	(x_9 (x_0 (x_2 x_2563 x_2564) (x_2 x_2507 x_2508)) (x_2 x_2563 x_2564) (x_2 x_2507 x_2508))))
(assert (forall ((x_13 R_0))
	(rep_0 Eps_0 x_13 Z_2 Z_2)))
(assert (forall ((x_4460 Nat_0) (x_4461 Nat_0) (x_4230 R_0) (x_13 R_0) (z_0 Nat_0))
	(=> (and (diseqNat_0 z_0 Z_2) (rep_0 x_4230 x_13 x_4460 x_4461) (minus_0 x_4460 Z_2 (Z_3 Z_2)) (minus_0 x_4461 z_0 (Z_3 Z_2))) (rep_0 (x_2 (x_0 Eps_0 x_13) x_4230) x_13 Z_2 z_0))))
(assert (forall ((x_13 R_0))
	(rep_0 Eps_0 x_13 Z_2 Z_2)))
(assert (forall ((x_4462 Nat_0) (x_4463 Nat_0) (x_4233 R_0) (x_13 R_0) (y_2 Nat_0) (z_0 Nat_0))
	(=> (and (diseqNat_0 z_0 Z_2) (diseqNat_0 y_2 Z_2) (rep_0 x_4233 x_13 x_4462 x_4463) (minus_0 x_4462 y_2 (Z_3 Z_2)) (minus_0 x_4463 z_0 (Z_3 Z_2))) (rep_0 (x_2 (x_0 Nil_1 x_13) x_4233) x_13 y_2 z_0))))
(assert (forall ((x_13 R_0) (y_2 Nat_0))
	(=> (diseqNat_0 y_2 Z_2) (rep_0 Nil_1 x_13 y_2 Z_2))))
(assert (forall ((x_4464 Nat_0) (x_4465 Nat_0) (x_4236 R_0) (x_13 R_0) (z_0 Nat_0))
	(=> (and (diseqNat_0 z_0 Z_2) (rep_0 x_4236 x_13 x_4464 x_4465) (minus_0 x_4464 Z_2 (Z_3 Z_2)) (minus_0 x_4465 z_0 (Z_3 Z_2))) (rep_0 (x_2 (x_0 Eps_0 x_13) x_4236) x_13 Z_2 z_0))))
(assert (forall ((x_13 R_0) (y_2 Nat_0))
	(=> (diseqNat_0 y_2 Z_2) (rep_0 Nil_1 x_13 y_2 Z_2))))
(assert (forall ((x_4466 Nat_0) (x_4467 Nat_0) (x_4239 R_0) (x_13 R_0) (y_2 Nat_0) (z_0 Nat_0))
	(=> (and (diseqNat_0 z_0 Z_2) (diseqNat_0 y_2 Z_2) (rep_0 x_4239 x_13 x_4466 x_4467) (minus_0 x_4466 y_2 (Z_3 Z_2)) (minus_0 x_4467 z_0 (Z_3 Z_2))) (rep_0 (x_2 (x_0 Nil_1 x_13) x_4239) x_13 y_2 z_0))))
(assert (forall ((y_3 R_0))
	(eps_1 true_0 (Star_0 y_3))))
(assert (forall ((x_4241 Bool_0) (x_4242 Bool_0) (x_4243 Bool_0) (p_1 R_0) (q_2 R_0))
	(=> (and (eps_1 x_4242 p_1) (eps_1 x_4243 q_2) (and_0 x_4241 x_4242 x_4243)) (eps_1 x_4241 (x_2 p_1 q_2)))))
(assert (forall ((x_4244 Bool_0) (x_4245 Bool_0) (x_4246 Bool_0) (r_1 R_0) (q_1 R_0))
	(=> (and (eps_1 x_4245 r_1) (eps_1 x_4246 q_1) (and_0 x_4244 x_4245 x_4246)) (eps_1 x_4244 (x_1 r_1 q_1)))))
(assert (forall ((x_4247 Bool_0) (x_4248 Bool_0) (x_4249 Bool_0) (p_0 R_0) (q_0 R_0))
	(=> (and (eps_1 x_4248 p_0) (eps_1 x_4249 q_0) (or_0 x_4247 x_4248 x_4249)) (eps_1 x_4247 (x_0 p_0 q_0)))))
(assert (eps_1 true_0 Eps_0))
(assert (forall ((x_15 R_0) (x_2565 T_0))
	(eps_1 false_0 (Atom_0 x_2565))))
(assert (forall ((x_15 R_0))
	(eps_1 false_0 Nil_1)))
(assert (forall ((x_4253 R_0) (x_4254 R_0) (p_4 R_0) (y_4 T_0))
	(=> (and (step_0 x_4254 p_4 y_4) (x_3 x_4253 x_4254 (Star_0 p_4))) (step_0 x_4253 (Star_0 p_4) y_4))))
(assert (forall ((x_4257 R_0) (x_4258 R_0) (x_4259 R_0) (x_4260 R_0) (p_3 R_0) (q_5 R_0) (y_4 T_0))
	(=> (and (step_0 x_4258 p_3 y_4) (x_3 x_4259 x_4258 q_5) (step_0 x_4260 q_5 y_4) (x_9 x_4257 x_4259 x_4260) (eps_1 true_0 p_3)) (step_0 x_4257 (x_2 p_3 q_5) y_4))))
(assert (forall ((x_4263 R_0) (x_4264 R_0) (x_4265 R_0) (x_4262 Bool_0) (p_3 R_0) (q_5 R_0) (y_4 T_0))
	(=> (and (diseqBool_0 x_4262 true_0) (step_0 x_4264 p_3 y_4) (x_3 x_4265 x_4264 q_5) (x_9 x_4263 x_4265 Nil_1) (eps_1 x_4262 p_3)) (step_0 x_4263 (x_2 p_3 q_5) y_4))))
(assert (forall ((r_2 R_0) (q_4 R_0) (y_4 T_0))
	(=> (step_0 Nil_1 r_2 y_4) (step_0 Nil_1 (x_1 r_2 q_4) y_4))))
(assert (forall ((x_18 R_0) (x_2574 T_0) (r_2 R_0) (q_4 R_0) (y_4 T_0))
	(=> (and (step_0 Nil_1 q_4 y_4) (step_0 (Atom_0 x_2574) r_2 y_4)) (step_0 Nil_1 (x_1 r_2 q_4) y_4))))
(assert (forall ((x_18 R_0) (r_2 R_0) (q_4 R_0) (y_4 T_0))
	(=> (and (step_0 Nil_1 q_4 y_4) (step_0 Eps_0 r_2 y_4)) (step_0 Nil_1 (x_1 r_2 q_4) y_4))))
(assert (forall ((x_18 R_0) (x_2575 R_0) (r_2 R_0) (q_4 R_0) (y_4 T_0))
	(=> (and (step_0 Nil_1 q_4 y_4) (step_0 (Star_0 x_2575) r_2 y_4)) (step_0 Nil_1 (x_1 r_2 q_4) y_4))))
(assert (forall ((x_18 R_0) (x_2576 R_0) (x_2577 R_0) (r_2 R_0) (q_4 R_0) (y_4 T_0))
	(=> (and (step_0 Nil_1 q_4 y_4) (step_0 (x_0 x_2576 x_2577) r_2 y_4)) (step_0 Nil_1 (x_1 r_2 q_4) y_4))))
(assert (forall ((x_18 R_0) (x_2578 R_0) (x_2579 R_0) (r_2 R_0) (q_4 R_0) (y_4 T_0))
	(=> (and (step_0 Nil_1 q_4 y_4) (step_0 (x_1 x_2578 x_2579) r_2 y_4)) (step_0 Nil_1 (x_1 r_2 q_4) y_4))))
(assert (forall ((x_18 R_0) (x_2580 R_0) (x_2581 R_0) (r_2 R_0) (q_4 R_0) (y_4 T_0))
	(=> (and (step_0 Nil_1 q_4 y_4) (step_0 (x_2 x_2580 x_2581) r_2 y_4)) (step_0 Nil_1 (x_1 r_2 q_4) y_4))))
(assert (forall ((x_19 R_0) (x_2566 T_0) (x_18 R_0) (x_2582 T_0) (r_2 R_0) (q_4 R_0) (y_4 T_0))
	(=> (and (step_0 (Atom_0 x_2566) q_4 y_4) (step_0 (Atom_0 x_2582) r_2 y_4)) (step_0 (x_1 (Atom_0 x_2582) (Atom_0 x_2566)) (x_1 r_2 q_4) y_4))))
(assert (forall ((x_19 R_0) (x_2566 T_0) (x_18 R_0) (r_2 R_0) (q_4 R_0) (y_4 T_0))
	(=> (and (step_0 (Atom_0 x_2566) q_4 y_4) (step_0 Eps_0 r_2 y_4)) (step_0 (x_1 Eps_0 (Atom_0 x_2566)) (x_1 r_2 q_4) y_4))))
(assert (forall ((x_19 R_0) (x_2566 T_0) (x_18 R_0) (x_2583 R_0) (r_2 R_0) (q_4 R_0) (y_4 T_0))
	(=> (and (step_0 (Atom_0 x_2566) q_4 y_4) (step_0 (Star_0 x_2583) r_2 y_4)) (step_0 (x_1 (Star_0 x_2583) (Atom_0 x_2566)) (x_1 r_2 q_4) y_4))))
(assert (forall ((x_19 R_0) (x_2566 T_0) (x_18 R_0) (x_2584 R_0) (x_2585 R_0) (r_2 R_0) (q_4 R_0) (y_4 T_0))
	(=> (and (step_0 (Atom_0 x_2566) q_4 y_4) (step_0 (x_0 x_2584 x_2585) r_2 y_4)) (step_0 (x_1 (x_0 x_2584 x_2585) (Atom_0 x_2566)) (x_1 r_2 q_4) y_4))))
(assert (forall ((x_19 R_0) (x_2566 T_0) (x_18 R_0) (x_2586 R_0) (x_2587 R_0) (r_2 R_0) (q_4 R_0) (y_4 T_0))
	(=> (and (step_0 (Atom_0 x_2566) q_4 y_4) (step_0 (x_1 x_2586 x_2587) r_2 y_4)) (step_0 (x_1 (x_1 x_2586 x_2587) (Atom_0 x_2566)) (x_1 r_2 q_4) y_4))))
(assert (forall ((x_19 R_0) (x_2566 T_0) (x_18 R_0) (x_2588 R_0) (x_2589 R_0) (r_2 R_0) (q_4 R_0) (y_4 T_0))
	(=> (and (step_0 (Atom_0 x_2566) q_4 y_4) (step_0 (x_2 x_2588 x_2589) r_2 y_4)) (step_0 (x_1 (x_2 x_2588 x_2589) (Atom_0 x_2566)) (x_1 r_2 q_4) y_4))))
(assert (forall ((x_19 R_0) (x_18 R_0) (x_2590 T_0) (r_2 R_0) (q_4 R_0) (y_4 T_0))
	(=> (and (step_0 Eps_0 q_4 y_4) (step_0 (Atom_0 x_2590) r_2 y_4)) (step_0 (x_1 (Atom_0 x_2590) Eps_0) (x_1 r_2 q_4) y_4))))
(assert (forall ((x_19 R_0) (x_18 R_0) (r_2 R_0) (q_4 R_0) (y_4 T_0))
	(=> (and (step_0 Eps_0 q_4 y_4) (step_0 Eps_0 r_2 y_4)) (step_0 (x_1 Eps_0 Eps_0) (x_1 r_2 q_4) y_4))))
(assert (forall ((x_19 R_0) (x_18 R_0) (x_2591 R_0) (r_2 R_0) (q_4 R_0) (y_4 T_0))
	(=> (and (step_0 Eps_0 q_4 y_4) (step_0 (Star_0 x_2591) r_2 y_4)) (step_0 (x_1 (Star_0 x_2591) Eps_0) (x_1 r_2 q_4) y_4))))
(assert (forall ((x_19 R_0) (x_18 R_0) (x_2592 R_0) (x_2593 R_0) (r_2 R_0) (q_4 R_0) (y_4 T_0))
	(=> (and (step_0 Eps_0 q_4 y_4) (step_0 (x_0 x_2592 x_2593) r_2 y_4)) (step_0 (x_1 (x_0 x_2592 x_2593) Eps_0) (x_1 r_2 q_4) y_4))))
(assert (forall ((x_19 R_0) (x_18 R_0) (x_2594 R_0) (x_2595 R_0) (r_2 R_0) (q_4 R_0) (y_4 T_0))
	(=> (and (step_0 Eps_0 q_4 y_4) (step_0 (x_1 x_2594 x_2595) r_2 y_4)) (step_0 (x_1 (x_1 x_2594 x_2595) Eps_0) (x_1 r_2 q_4) y_4))))
(assert (forall ((x_19 R_0) (x_18 R_0) (x_2596 R_0) (x_2597 R_0) (r_2 R_0) (q_4 R_0) (y_4 T_0))
	(=> (and (step_0 Eps_0 q_4 y_4) (step_0 (x_2 x_2596 x_2597) r_2 y_4)) (step_0 (x_1 (x_2 x_2596 x_2597) Eps_0) (x_1 r_2 q_4) y_4))))
(assert (forall ((x_19 R_0) (x_2567 R_0) (x_18 R_0) (x_2598 T_0) (r_2 R_0) (q_4 R_0) (y_4 T_0))
	(=> (and (step_0 (Star_0 x_2567) q_4 y_4) (step_0 (Atom_0 x_2598) r_2 y_4)) (step_0 (x_1 (Atom_0 x_2598) (Star_0 x_2567)) (x_1 r_2 q_4) y_4))))
(assert (forall ((x_19 R_0) (x_2567 R_0) (x_18 R_0) (r_2 R_0) (q_4 R_0) (y_4 T_0))
	(=> (and (step_0 (Star_0 x_2567) q_4 y_4) (step_0 Eps_0 r_2 y_4)) (step_0 (x_1 Eps_0 (Star_0 x_2567)) (x_1 r_2 q_4) y_4))))
(assert (forall ((x_19 R_0) (x_2567 R_0) (x_18 R_0) (x_2599 R_0) (r_2 R_0) (q_4 R_0) (y_4 T_0))
	(=> (and (step_0 (Star_0 x_2567) q_4 y_4) (step_0 (Star_0 x_2599) r_2 y_4)) (step_0 (x_1 (Star_0 x_2599) (Star_0 x_2567)) (x_1 r_2 q_4) y_4))))
(assert (forall ((x_19 R_0) (x_2567 R_0) (x_18 R_0) (x_2600 R_0) (x_2601 R_0) (r_2 R_0) (q_4 R_0) (y_4 T_0))
	(=> (and (step_0 (Star_0 x_2567) q_4 y_4) (step_0 (x_0 x_2600 x_2601) r_2 y_4)) (step_0 (x_1 (x_0 x_2600 x_2601) (Star_0 x_2567)) (x_1 r_2 q_4) y_4))))
(assert (forall ((x_19 R_0) (x_2567 R_0) (x_18 R_0) (x_2602 R_0) (x_2603 R_0) (r_2 R_0) (q_4 R_0) (y_4 T_0))
	(=> (and (step_0 (Star_0 x_2567) q_4 y_4) (step_0 (x_1 x_2602 x_2603) r_2 y_4)) (step_0 (x_1 (x_1 x_2602 x_2603) (Star_0 x_2567)) (x_1 r_2 q_4) y_4))))
(assert (forall ((x_19 R_0) (x_2567 R_0) (x_18 R_0) (x_2604 R_0) (x_2605 R_0) (r_2 R_0) (q_4 R_0) (y_4 T_0))
	(=> (and (step_0 (Star_0 x_2567) q_4 y_4) (step_0 (x_2 x_2604 x_2605) r_2 y_4)) (step_0 (x_1 (x_2 x_2604 x_2605) (Star_0 x_2567)) (x_1 r_2 q_4) y_4))))
(assert (forall ((x_19 R_0) (x_2568 R_0) (x_2569 R_0) (x_18 R_0) (x_2606 T_0) (r_2 R_0) (q_4 R_0) (y_4 T_0))
	(=> (and (step_0 (x_0 x_2568 x_2569) q_4 y_4) (step_0 (Atom_0 x_2606) r_2 y_4)) (step_0 (x_1 (Atom_0 x_2606) (x_0 x_2568 x_2569)) (x_1 r_2 q_4) y_4))))
(assert (forall ((x_19 R_0) (x_2568 R_0) (x_2569 R_0) (x_18 R_0) (r_2 R_0) (q_4 R_0) (y_4 T_0))
	(=> (and (step_0 (x_0 x_2568 x_2569) q_4 y_4) (step_0 Eps_0 r_2 y_4)) (step_0 (x_1 Eps_0 (x_0 x_2568 x_2569)) (x_1 r_2 q_4) y_4))))
(assert (forall ((x_19 R_0) (x_2568 R_0) (x_2569 R_0) (x_18 R_0) (x_2607 R_0) (r_2 R_0) (q_4 R_0) (y_4 T_0))
	(=> (and (step_0 (x_0 x_2568 x_2569) q_4 y_4) (step_0 (Star_0 x_2607) r_2 y_4)) (step_0 (x_1 (Star_0 x_2607) (x_0 x_2568 x_2569)) (x_1 r_2 q_4) y_4))))
(assert (forall ((x_19 R_0) (x_2568 R_0) (x_2569 R_0) (x_18 R_0) (x_2608 R_0) (x_2609 R_0) (r_2 R_0) (q_4 R_0) (y_4 T_0))
	(=> (and (step_0 (x_0 x_2568 x_2569) q_4 y_4) (step_0 (x_0 x_2608 x_2609) r_2 y_4)) (step_0 (x_1 (x_0 x_2608 x_2609) (x_0 x_2568 x_2569)) (x_1 r_2 q_4) y_4))))
(assert (forall ((x_19 R_0) (x_2568 R_0) (x_2569 R_0) (x_18 R_0) (x_2610 R_0) (x_2611 R_0) (r_2 R_0) (q_4 R_0) (y_4 T_0))
	(=> (and (step_0 (x_0 x_2568 x_2569) q_4 y_4) (step_0 (x_1 x_2610 x_2611) r_2 y_4)) (step_0 (x_1 (x_1 x_2610 x_2611) (x_0 x_2568 x_2569)) (x_1 r_2 q_4) y_4))))
(assert (forall ((x_19 R_0) (x_2568 R_0) (x_2569 R_0) (x_18 R_0) (x_2612 R_0) (x_2613 R_0) (r_2 R_0) (q_4 R_0) (y_4 T_0))
	(=> (and (step_0 (x_0 x_2568 x_2569) q_4 y_4) (step_0 (x_2 x_2612 x_2613) r_2 y_4)) (step_0 (x_1 (x_2 x_2612 x_2613) (x_0 x_2568 x_2569)) (x_1 r_2 q_4) y_4))))
(assert (forall ((x_19 R_0) (x_2570 R_0) (x_2571 R_0) (x_18 R_0) (x_2614 T_0) (r_2 R_0) (q_4 R_0) (y_4 T_0))
	(=> (and (step_0 (x_1 x_2570 x_2571) q_4 y_4) (step_0 (Atom_0 x_2614) r_2 y_4)) (step_0 (x_1 (Atom_0 x_2614) (x_1 x_2570 x_2571)) (x_1 r_2 q_4) y_4))))
(assert (forall ((x_19 R_0) (x_2570 R_0) (x_2571 R_0) (x_18 R_0) (r_2 R_0) (q_4 R_0) (y_4 T_0))
	(=> (and (step_0 (x_1 x_2570 x_2571) q_4 y_4) (step_0 Eps_0 r_2 y_4)) (step_0 (x_1 Eps_0 (x_1 x_2570 x_2571)) (x_1 r_2 q_4) y_4))))
(assert (forall ((x_19 R_0) (x_2570 R_0) (x_2571 R_0) (x_18 R_0) (x_2615 R_0) (r_2 R_0) (q_4 R_0) (y_4 T_0))
	(=> (and (step_0 (x_1 x_2570 x_2571) q_4 y_4) (step_0 (Star_0 x_2615) r_2 y_4)) (step_0 (x_1 (Star_0 x_2615) (x_1 x_2570 x_2571)) (x_1 r_2 q_4) y_4))))
(assert (forall ((x_19 R_0) (x_2570 R_0) (x_2571 R_0) (x_18 R_0) (x_2616 R_0) (x_2617 R_0) (r_2 R_0) (q_4 R_0) (y_4 T_0))
	(=> (and (step_0 (x_1 x_2570 x_2571) q_4 y_4) (step_0 (x_0 x_2616 x_2617) r_2 y_4)) (step_0 (x_1 (x_0 x_2616 x_2617) (x_1 x_2570 x_2571)) (x_1 r_2 q_4) y_4))))
(assert (forall ((x_19 R_0) (x_2570 R_0) (x_2571 R_0) (x_18 R_0) (x_2618 R_0) (x_2619 R_0) (r_2 R_0) (q_4 R_0) (y_4 T_0))
	(=> (and (step_0 (x_1 x_2570 x_2571) q_4 y_4) (step_0 (x_1 x_2618 x_2619) r_2 y_4)) (step_0 (x_1 (x_1 x_2618 x_2619) (x_1 x_2570 x_2571)) (x_1 r_2 q_4) y_4))))
(assert (forall ((x_19 R_0) (x_2570 R_0) (x_2571 R_0) (x_18 R_0) (x_2620 R_0) (x_2621 R_0) (r_2 R_0) (q_4 R_0) (y_4 T_0))
	(=> (and (step_0 (x_1 x_2570 x_2571) q_4 y_4) (step_0 (x_2 x_2620 x_2621) r_2 y_4)) (step_0 (x_1 (x_2 x_2620 x_2621) (x_1 x_2570 x_2571)) (x_1 r_2 q_4) y_4))))
(assert (forall ((x_19 R_0) (x_2572 R_0) (x_2573 R_0) (x_18 R_0) (x_2622 T_0) (r_2 R_0) (q_4 R_0) (y_4 T_0))
	(=> (and (step_0 (x_2 x_2572 x_2573) q_4 y_4) (step_0 (Atom_0 x_2622) r_2 y_4)) (step_0 (x_1 (Atom_0 x_2622) (x_2 x_2572 x_2573)) (x_1 r_2 q_4) y_4))))
(assert (forall ((x_19 R_0) (x_2572 R_0) (x_2573 R_0) (x_18 R_0) (r_2 R_0) (q_4 R_0) (y_4 T_0))
	(=> (and (step_0 (x_2 x_2572 x_2573) q_4 y_4) (step_0 Eps_0 r_2 y_4)) (step_0 (x_1 Eps_0 (x_2 x_2572 x_2573)) (x_1 r_2 q_4) y_4))))
(assert (forall ((x_19 R_0) (x_2572 R_0) (x_2573 R_0) (x_18 R_0) (x_2623 R_0) (r_2 R_0) (q_4 R_0) (y_4 T_0))
	(=> (and (step_0 (x_2 x_2572 x_2573) q_4 y_4) (step_0 (Star_0 x_2623) r_2 y_4)) (step_0 (x_1 (Star_0 x_2623) (x_2 x_2572 x_2573)) (x_1 r_2 q_4) y_4))))
(assert (forall ((x_19 R_0) (x_2572 R_0) (x_2573 R_0) (x_18 R_0) (x_2624 R_0) (x_2625 R_0) (r_2 R_0) (q_4 R_0) (y_4 T_0))
	(=> (and (step_0 (x_2 x_2572 x_2573) q_4 y_4) (step_0 (x_0 x_2624 x_2625) r_2 y_4)) (step_0 (x_1 (x_0 x_2624 x_2625) (x_2 x_2572 x_2573)) (x_1 r_2 q_4) y_4))))
(assert (forall ((x_19 R_0) (x_2572 R_0) (x_2573 R_0) (x_18 R_0) (x_2626 R_0) (x_2627 R_0) (r_2 R_0) (q_4 R_0) (y_4 T_0))
	(=> (and (step_0 (x_2 x_2572 x_2573) q_4 y_4) (step_0 (x_1 x_2626 x_2627) r_2 y_4)) (step_0 (x_1 (x_1 x_2626 x_2627) (x_2 x_2572 x_2573)) (x_1 r_2 q_4) y_4))))
(assert (forall ((x_19 R_0) (x_2572 R_0) (x_2573 R_0) (x_18 R_0) (x_2628 R_0) (x_2629 R_0) (r_2 R_0) (q_4 R_0) (y_4 T_0))
	(=> (and (step_0 (x_2 x_2572 x_2573) q_4 y_4) (step_0 (x_2 x_2628 x_2629) r_2 y_4)) (step_0 (x_1 (x_2 x_2628 x_2629) (x_2 x_2572 x_2573)) (x_1 r_2 q_4) y_4))))
(assert (forall ((x_4395 R_0) (x_4396 R_0) (x_4397 R_0) (p_2 R_0) (q_3 R_0) (y_4 T_0))
	(=> (and (step_0 x_4396 p_2 y_4) (step_0 x_4397 q_3 y_4) (x_9 x_4395 x_4396 x_4397)) (step_0 x_4395 (x_0 p_2 q_3) y_4))))
(assert (forall ((b_1 T_0))
	(step_0 Eps_0 (Atom_0 b_1) b_1)))
(assert (forall ((b_1 T_0) (y_4 T_0))
	(=> (diseqT_0 b_1 y_4) (step_0 Nil_1 (Atom_0 b_1) y_4))))
(assert (forall ((x_17 R_0) (y_4 T_0))
	(step_0 Nil_1 Eps_0 y_4)))
(assert (forall ((x_17 R_0) (y_4 T_0))
	(step_0 Nil_1 Nil_1 y_4)))
(assert (forall ((x_4403 Bool_0) (x_4404 R_0) (z_1 T_0) (xs_0 list_0) (x_20 R_0))
	(=> (and (step_0 x_4404 x_20 z_1) (rec_0 x_4403 x_4404 xs_0)) (rec_0 x_4403 x_20 (cons_0 z_1 xs_0)))))
(assert (forall ((x_4406 Bool_0) (x_20 R_0))
	(=> (eps_1 x_4406 x_20) (rec_0 x_4406 x_20 nil_0))))
(assert (forall ((x_4413 Bool_0) (x_4408 R_0) (x_4409 R_0) (x_4410 Bool_0) (x_4411 R_0) (x_4412 Bool_0) (p_5 R_0) (i_0 Nat_0) (i_1 Nat_0) (j_0 Nat_0) (j_1 Nat_0) (s_0 list_0))
	(=> (and (diseqBool_0 x_4410 x_4412) (diseqBool_0 x_4413 true_0) (le_0 i_0 i_1) (le_0 j_0 j_1) (eps_1 x_4413 p_5) (rep_0 x_4408 p_5 i_0 j_0) (rep_0 x_4409 p_5 i_1 j_1) (rec_0 x_4410 (x_1 x_4408 x_4409) s_0) (rep_0 x_4411 p_5 i_1 j_0) (rec_0 x_4412 x_4411 s_0)) false)))
(assert (forall ((x_4419 Bool_0) (x_4414 R_0) (x_4415 R_0) (x_4416 Bool_0) (x_4417 R_0) (x_4418 Bool_0) (p_5 R_0) (i_0 Nat_0) (i_1 Nat_0) (j_0 Nat_0) (j_1 Nat_0) (s_0 list_0))
	(=> (and (diseqBool_0 x_4416 x_4418) (diseqBool_0 x_4419 true_0) (gt_0 i_0 i_1) (le_0 j_0 j_1) (eps_1 x_4419 p_5) (rep_0 x_4414 p_5 i_0 j_0) (rep_0 x_4415 p_5 i_1 j_1) (rec_0 x_4416 (x_1 x_4414 x_4415) s_0) (rep_0 x_4417 p_5 i_0 j_0) (rec_0 x_4418 x_4417 s_0)) false)))
(assert (forall ((x_4425 Bool_0) (x_4420 R_0) (x_4421 R_0) (x_4422 Bool_0) (x_4423 R_0) (x_4424 Bool_0) (p_5 R_0) (i_0 Nat_0) (i_1 Nat_0) (j_0 Nat_0) (j_1 Nat_0) (s_0 list_0))
	(=> (and (diseqBool_0 x_4422 x_4424) (diseqBool_0 x_4425 true_0) (le_0 i_0 i_1) (le_0 j_0 j_1) (eps_1 x_4425 p_5) (rep_0 x_4420 p_5 i_0 j_0) (rep_0 x_4421 p_5 i_1 j_1) (rec_0 x_4422 (x_1 x_4420 x_4421) s_0) (rep_0 x_4423 p_5 i_1 j_0) (rec_0 x_4424 x_4423 s_0)) false)))
(assert (forall ((x_4431 Bool_0) (x_4426 R_0) (x_4427 R_0) (x_4428 Bool_0) (x_4429 R_0) (x_4430 Bool_0) (p_5 R_0) (i_0 Nat_0) (i_1 Nat_0) (j_0 Nat_0) (j_1 Nat_0) (s_0 list_0))
	(=> (and (diseqBool_0 x_4428 x_4430) (diseqBool_0 x_4431 true_0) (gt_0 i_0 i_1) (gt_0 j_0 j_1) (eps_1 x_4431 p_5) (rep_0 x_4426 p_5 i_0 j_0) (rep_0 x_4427 p_5 i_1 j_1) (rec_0 x_4428 (x_1 x_4426 x_4427) s_0) (rep_0 x_4429 p_5 i_0 j_1) (rec_0 x_4430 x_4429 s_0)) false)))
(assert (forall ((x_4437 Bool_0) (x_4432 R_0) (x_4433 R_0) (x_4434 Bool_0) (x_4435 R_0) (x_4436 Bool_0) (p_5 R_0) (i_0 Nat_0) (i_1 Nat_0) (j_0 Nat_0) (j_1 Nat_0) (s_0 list_0))
	(=> (and (diseqBool_0 x_4434 x_4436) (diseqBool_0 x_4437 true_0) (le_0 i_0 i_1) (gt_0 j_0 j_1) (eps_1 x_4437 p_5) (rep_0 x_4432 p_5 i_0 j_0) (rep_0 x_4433 p_5 i_1 j_1) (rec_0 x_4434 (x_1 x_4432 x_4433) s_0) (rep_0 x_4435 p_5 i_1 j_1) (rec_0 x_4436 x_4435 s_0)) false)))
(assert (forall ((x_4443 Bool_0) (x_4438 R_0) (x_4439 R_0) (x_4440 Bool_0) (x_4441 R_0) (x_4442 Bool_0) (p_5 R_0) (i_0 Nat_0) (i_1 Nat_0) (j_0 Nat_0) (j_1 Nat_0) (s_0 list_0))
	(=> (and (diseqBool_0 x_4440 x_4442) (diseqBool_0 x_4443 true_0) (gt_0 i_0 i_1) (le_0 j_0 j_1) (eps_1 x_4443 p_5) (rep_0 x_4438 p_5 i_0 j_0) (rep_0 x_4439 p_5 i_1 j_1) (rec_0 x_4440 (x_1 x_4438 x_4439) s_0) (rep_0 x_4441 p_5 i_0 j_0) (rec_0 x_4442 x_4441 s_0)) false)))
(assert (forall ((x_4449 Bool_0) (x_4444 R_0) (x_4445 R_0) (x_4446 Bool_0) (x_4447 R_0) (x_4448 Bool_0) (p_5 R_0) (i_0 Nat_0) (i_1 Nat_0) (j_0 Nat_0) (j_1 Nat_0) (s_0 list_0))
	(=> (and (diseqBool_0 x_4446 x_4448) (diseqBool_0 x_4449 true_0) (le_0 i_0 i_1) (gt_0 j_0 j_1) (eps_1 x_4449 p_5) (rep_0 x_4444 p_5 i_0 j_0) (rep_0 x_4445 p_5 i_1 j_1) (rec_0 x_4446 (x_1 x_4444 x_4445) s_0) (rep_0 x_4447 p_5 i_1 j_1) (rec_0 x_4448 x_4447 s_0)) false)))
(assert (forall ((x_4455 Bool_0) (x_4450 R_0) (x_4451 R_0) (x_4452 Bool_0) (x_4453 R_0) (x_4454 Bool_0) (p_5 R_0) (i_0 Nat_0) (i_1 Nat_0) (j_0 Nat_0) (j_1 Nat_0) (s_0 list_0))
	(=> (and (diseqBool_0 x_4452 x_4454) (diseqBool_0 x_4455 true_0) (gt_0 i_0 i_1) (gt_0 j_0 j_1) (eps_1 x_4455 p_5) (rep_0 x_4450 p_5 i_0 j_0) (rep_0 x_4451 p_5 i_1 j_1) (rec_0 x_4452 (x_1 x_4450 x_4451) s_0) (rep_0 x_4453 p_5 i_0 j_1) (rec_0 x_4454 x_4453 s_0)) false)))
(check-sat)
(get-model)
